language ESSENCE' 1.0
$ Minion SolverNodes: 20
$ Minion SolverTotalTime: 0.050043
$ Minion SolverTimeOut: 0
$ Savile Row TotalTime: 0.244
letting actionFrom be [0, 2, 2, 2, 2, 2, 2]
letting actionTo be [2, 3, 3, 3, 3, 3, 3]
letting arg be [-1, -1, -1, -1, -1, -1, -1]
letting pointers be [[1, 2, 2, 2, 2, 2, 2, 2;int(0..7)], 
[1, 1, 1, 1, 1, 1, 1, 1;int(0..7)];int(0..1)]
letting statePlaces be [[0, 0, 0, 0, 0, 0, 0], 
[2, 0, 0, 0, 0, 0, 0], 
[0, 0, 0, 0, 0, 0, 0]]
